\ Model warehouse_inventory_variant
\ LP format - for model browsing. Use MPS format to capture full model detail.
Minimize
  2797.99 INV1 + 1455.45 HAND1 + 39.68 SLACK1 + 597.51 RESERVE1
   + 2797.99 INV2 + 1455.45 HAND2 + 39.68 SLACK2 + 597.51 RESERVE2
   + 2797.99 INV3 + 1455.45 HAND3 + 39.68 SLACK3 + 597.51 RESERVE3
   + 2797.99 INV4 + 1455.45 HAND4 + 39.68 SLACK4 + 597.51 RESERVE4
   + 2797.99 INV5 + 1455.45 HAND5 + 39.68 SLACK5 + 597.51 RESERVE5
   + 2797.99 INV6 + 1455.45 HAND6 + 39.68 SLACK6 + 597.51 RESERVE6
Subject To
 INIT_INV: INV1 = 54
 DEMAND1: 150 INV1 - 100 HAND1 + SLACK1 - 50 RESERVE1 >= 8884
 SLACK_BOUND1: - 20 INV1 + SLACK1 <= 0
 DEMAND2: 150 INV2 - 100 HAND2 + SLACK2 - 50 RESERVE2 >= 11330
 SLACK_BOUND2: - 20 INV2 + SLACK2 <= 0
 DEMAND3: 150 INV3 - 100 HAND3 + SLACK3 - 50 RESERVE3 >= 11562
 SLACK_BOUND3: - 20 INV3 + SLACK3 <= 0
 DEMAND4: 150 INV4 - 100 HAND4 + SLACK4 - 50 RESERVE4 >= 8954
 SLACK_BOUND4: - 20 INV4 + SLACK4 <= 0
 DEMAND5: 150 INV5 - 100 HAND5 + SLACK5 - 50 RESERVE5 >= 9345
 SLACK_BOUND5: - 20 INV5 + SLACK5 <= 0
 DEMAND6: 150 INV6 - 100 HAND6 + SLACK6 - 50 RESERVE6 >= 11171
 SLACK_BOUND6: - 20 INV6 + SLACK6 <= 0
 TRANS2: 0.93 INV1 + HAND1 - INV2 = 0
 TRANS3: 0.93 INV2 + HAND2 - INV3 = 0
 TRANS4: 0.93 INV3 + HAND3 - INV4 = 0
 TRANS5: 0.93 INV4 + HAND4 - INV5 = 0
 TRANS6: 0.93 INV5 + HAND5 - INV6 = 0
 RESERVE_BOUND1: - INV1 + RESERVE1 <= 0
 RESERVE_BOUND2: - INV2 + RESERVE2 <= 0
 RESERVE_BOUND3: - INV3 + RESERVE3 <= 0
 RESERVE_BOUND4: - INV4 + RESERVE4 <= 0
 RESERVE_BOUND5: - INV5 + RESERVE5 <= 0
 RESERVE_BOUND6: - INV6 + RESERVE6 <= 0
Bounds
 HAND1 <= 19
 RESERVE1 <= 8
 54 <= INV2 <= 72
 HAND2 <= 19
 RESERVE2 <= 8
 54 <= INV3 <= 72
 HAND3 <= 19
 RESERVE3 <= 8
 54 <= INV4 <= 72
 HAND4 <= 19
 RESERVE4 <= 8
 54 <= INV5 <= 72
 HAND5 <= 19
 RESERVE5 <= 8
 54 <= INV6 <= 72
 HAND6 <= 19
 RESERVE6 <= 8
Generals
 INV1 HAND1 RESERVE1 INV2 HAND2 RESERVE2 INV3 HAND3 RESERVE3 INV4 HAND4
 RESERVE4 INV5 HAND5 RESERVE5 INV6 HAND6 RESERVE6
End
